out/bwp_8_12_1_lp.out
7
0 0    0 0
0 1    0 1
0 2    0 2
3 5    3 5
4 5    4 5
6 5    6 5
5 4    5 5
6 4    7 4
3 3    4 4
1 0    4 2
5 0    7 3
0 3    2 6
